(set-logic HORN)

(declare-datatype Nat ((Z) (S (nextnat Nat))))
(declare-datatype Tree ((leaf) (node (trn1 Nat) (ltree Tree) (rtree Tree))))
(declare-datatype Lst ((nil) (cons (car Nat) (cdr Lst))))
(declare-datatype Lst2 ((nil2) (cons2 (car1 Nat) (car2 Nat) (cdr2 Lst2))))
(declare-datatype Queue ((queue (queue1 Lst) (queue2 Lst))))



(declare-fun add (Nat Nat Nat) Bool)
(declare-fun lt (Nat Nat) Bool)
(declare-fun le (Nat Nat) Bool)
(declare-fun gt (Nat Nat) Bool)
(declare-fun ge (Nat Nat) Bool)
(assert (forall ((y Nat)) (add Z y y)))
(assert (forall ((x Nat) (y Nat) (z Nat)) (=> (add x y z) (add (S x) y (S z)))))
(assert (forall ((y Nat)) (lt Z (S y))))
(assert (forall ((x Nat) (y Nat)) (=> (lt x y) (lt (S x) (S y)))))
(assert (forall ((x Nat) (y Nat)) (=> (or (lt x y) (= x y)) (le x y))))
(assert (forall ((x Nat)) (gt (S x) Z)))
(assert (forall ((x Nat) (y Nat)) (=> (gt x y) (gt (S x) (S y)))))
(assert (forall ((x Nat) (y Nat)) (=> (or (gt x y) (= x y)) (ge x y))))

(declare-fun incorrect () Bool)
(declare-fun rev (Lst Lst) Bool)
(declare-fun filter (Lst Lst) Bool)
(declare-fun append (Lst Lst Lst) Bool)
(assert (forall ((A Lst) (B Lst)) (=> (= A nil) (append A B B))))
(assert (forall ((A Nat)
         (B Lst)
         (C Lst)
         (D Lst)
         (E Lst)
         (F Lst))
  (=> (and (append B E C) (= F (cons A C)) (= D (cons A B))) (append D E F))))
(assert (forall ((A Lst) (B Lst))
  (=> (and (= B nil) (= A nil)) (rev A B))))
(assert (forall ((A Nat)
         (B Lst)
         (C Lst)
         (D Lst)
         (E Lst)
         (F Lst))
  (=> (and (append C D F) (rev B C) (= D (cons A nil)) (= E (cons A B)))
      (rev E F))))
(assert (forall ((A Lst) (B Lst))
  (=> (and (= B nil) (= A nil)) (filter A B))))
(assert (forall ((A Nat) (B Lst) (C Lst) (D Lst) (E Lst))
  (=> (and (filter B C) (= E (cons A C)) (= D (cons A B)) (gt A Z))
      (filter D E))))
(assert (forall ((A Nat) (B Lst) (C Lst) (D Lst))
  (=> (and (filter B D) (= C (cons A B)) (= A Z)) (filter C D))))
(assert (forall ((A Lst)
		 (XX Nat)
         (B Lst)
         (C Lst)
         (D Lst)
         (E Lst))
  (=> (and (= (cons XX D) E) (filter B A) (rev A D) (rev B C) (filter C E))
      incorrect)))
(assert (=> incorrect false))
(check-sat)

